28
39
127
90
0
32
0
35
25
34
0
24
61
230
23
21
16
44
22
53
39
0
55
322
12
30
94
92
0
38
21
42
36
20
27
275
77
0
0
15
30
20
0
138
27
0
21
35
0
36
24
26
19
41
43
151
0
25
49
325
0
75
70
47
0
68
42
24
13
26
18
28
29
17
0
131
60
63
61
27
0
28
19
66
17
44
36
172
33
21
20
0
34
65
24
54
0
17
29
16
